100
128
19
27
55
25
55
34
20
47
46
51
47
35
42
62
43
16
4
24
19
17
61
2
14
16
15
10
5
21
35
1
18
21
37
21
11
44
8
49
44
16
23
35
22
16
21
14
8
14
14
34
13
13
15
19
33
13
10
13
54
9
14
12
37
24
51
43
45
8
8
49
27
17
14
14
16
12
33
48
17
48
40
15
25
20
46
62
31
3
14
24
44
48
58
22
15
32
50
46
57
61